certificates/rado_a7_c165_N25.drat
-24 -25 0
-25 0
15 0
24 0
-21 0
-12 0
-18 0
3 0
11 0
7 0
23 0
2 0
22 0
8 0
-6 0
0
